71
CAS 1877286-69-5 (BRD4-Kinases-IN-3), MMFF-optimized geometry
C  -2.233565  1.599876 -3.423393
C  -1.167932  1.603574 -2.376635
C  -0.127542  0.703453 -2.437514
N   0.880056  0.655589 -1.549246
C   0.859070  1.544990 -0.552750
N  -0.120538  2.449328 -0.395531
C  -1.133079  2.454277 -1.284511
N  -2.134406  3.413092 -1.033749
C  -3.517130  3.155589 -0.855860
C  -4.017493  1.895557 -0.506148
C  -5.388842  1.710237 -0.316993
C  -6.274685  2.773530 -0.470058
C  -5.782721  4.040795 -0.774771
C  -4.410680  4.230724 -0.954973
N  -5.902673  0.400007 -0.051301
S  -6.184740 -0.551519 -1.437405
O  -6.414245  0.304076 -2.581569
O  -5.119025 -1.532362 -1.441519
C  -7.758458 -1.385227 -1.007599
C  -8.864664 -0.341569 -0.802197
C  -8.139616 -2.312107 -2.172229
C  -7.581818 -2.218811  0.269179
N   1.864118  1.598397  0.409584
C   3.031606  0.864090  0.635494
C   3.441388 -0.214832 -0.142591
C   4.628312 -0.898377  0.143968
C   5.475897 -0.540952  1.211534
C   5.044996  0.535003  1.997035
C   3.854236  1.223907  1.711705
N   6.658540 -1.254330  1.475860
C   7.334057 -1.057568  2.774069
C   8.448106 -2.111863  2.974116
N   9.442284 -2.100597  1.878638
C   8.737131 -2.311675  0.593697
C   7.617115 -1.273677  0.343176
C   10.449281 -3.138645  2.086883
F   4.930141 -1.954725 -0.630964
H  -1.841213  1.223224 -4.374792
H  -2.605413  2.610182 -3.620588
H  -3.066389  0.957593 -3.122769
H  -0.061401 -0.031384 -3.235856
H  -1.799086  3.922013 -0.215251
H  -3.343862  1.050721 -0.395471
H  -7.343348  2.622142 -0.353089
H  -6.466649  4.877962 -0.886917
H  -4.039547  5.221951 -1.206649
H  -5.273691 -0.136257  0.552557
H  -9.825356 -0.823930 -0.589540
H  -8.639224  0.324824  0.036813
H  -8.996282  0.283396 -1.692157
H  -8.272387 -1.748581 -3.102464
H  -7.362279 -3.062823 -2.353270
H  -9.075939 -2.842537 -1.966380
H  -8.505594 -2.751833  0.521023
H  -6.788932 -2.965709  0.153292
H  -7.319496 -1.592235  1.128025
H   1.660026  2.348873  1.052091
H   2.855392 -0.567218 -0.983698
H   5.630968  0.882838  2.841995
H   3.579447  2.058898  2.352751
H   7.773942 -0.053170  2.827449
H   6.616813 -1.167417  3.596628
H   8.951297 -1.900810  3.925383
H   7.986420 -3.105049  3.059290
H   8.297697 -3.318094  0.563301
H   9.456891 -2.242850 -0.230886
H   7.136658 -1.532062 -0.605465
H   8.060967 -0.276167  0.224048
H   11.197129 -3.112678  1.286654
H   10.013112 -4.143651  2.118213
H   10.986844 -2.967416  3.026045
